\ Model CVRP2
\ LP format - for model browsing. Use MPS format to capture full model detail.
Minimize
  332.1700099722822 xt[4,0] + 1468.182440647303 xt[4,9]
   + 121.4421579395008 xt[5,1] + 1061.703212884845 xt[8,0]
   + 1456.774442132331 xt[5,10] + 2464.991265866885 xt[8,9]
   + 2239.491293631201 xt[10,6] + 2464.991265866885 xt[9,8]
   + 362.8844828936554 xt[0,5] + 416.7737096135044 xt[6,2]
   + 649.870830492491 xt[7,1] + 2139.769738605067 xt[7,10]
   + 395.6722837462681 xt[4,2] + 419.8740476916923 xt[3,6]
   + 518.510603001517 xt[5,3] + 694.7776650483204 xt[8,2]
   + 1448.429779191955 xt[9,1] + 159.7763744268591 xt[9,10]
   + 701.0625713336876 xt[0,7] + 395.6722837462681 xt[2,4]
   + 1063.606697633096 xt[1,8] + 743.3971919505587 xt[6,4]
   + 342.6203721686693 xt[7,3] + 692.9840708847491 xt[3,8]
   + 1016.689318634248 xt[8,4] + 1854.82246484671 xt[9,3]
   + 1592.989927102495 xt[0,9] + 1570.833166992915 xt[1,10]
   + 728.6755571583351 xt[7,5] + 406.8652089451619 xt[3,1]
   + 1975.26952660262 xt[3,10] + 728.6755571583351 xt[5,7]
   + 1337.671663535198 xt[9,5] + 368.8231500326443 xt[0,2]
   + 406.8652089451619 xt[1,3] + 362.8844828936554 xt[5,0]
   + 1337.671663535198 xt[5,9] + 2036.131676642028 xt[9,7]
   + 2567.537257105518 xt[10,8] + 121.4421579395008 xt[1,5]
   + 711.7347187154699 xt[6,1] + 701.0625713336876 xt[7,0]
   + 2036.131676642028 xt[7,9] + 518.510603001517 xt[3,5]
   + 518.903127495876 xt[5,2] + 1592.989927102495 xt[9,0]
   + 1570.833166992915 xt[10,1] + 649.870830492491 xt[1,7]
   + 416.7737096135044 xt[2,6] + 345.6799871629796 xt[7,2]
   + 342.6203721686693 xt[3,7] + 135.0389217966547 xt[5,4]
   + 743.3971919505587 xt[4,6] + 1854.98970807119 xt[9,2]
   + 821.1563238050358 xt[8,6] + 1975.26952660262 xt[10,3]
   + 258.3759160602867 xt[1,0] + 1448.429779191955 xt[1,9]
   + 694.7776650483204 xt[2,8] + 594.251369371579 xt[7,4]
   + 821.1563238050358 xt[6,8] + 371.0007429237864 xt[3,0]
   + 1854.82246484671 xt[3,9] + 832.8151022886207 xt[5,6]
   + 1016.689318634248 xt[4,8] + 1456.774442132331 xt[10,5]
   + 406.8939385146866 xt[1,2] + 332.1700099722822 xt[0,4]
   + 406.8939385146866 xt[2,1] + 1975.629915830633 xt[2,10]
   + 2239.491293631201 xt[6,10] + 3.535427838327538 xt[3,2]
   + 90.43828683140279 xt[4,1] + 1584.359657164373 xt[4,10]
   + 1063.606697633096 xt[8,1] + 2567.537257105518 xt[8,10]
   + 2139.769738605067 xt[10,7] + 90.43828683140279 xt[1,4]
   + 511.7023357627066 xt[0,6] + 3.535427838327538 xt[2,3]
   + 419.8740476916923 xt[6,3] + 394.8585683823812 xt[3,4]
   + 394.8585683823812 xt[4,3] + 692.9840708847491 xt[8,3]
   + 1727.903340967003 xt[10,0] + 159.7763744268591 xt[10,9]
   + 711.7347187154699 xt[1,6] + 1061.703212884845 xt[0,8]
   + 518.903127495876 xt[2,5] + 832.8151022886207 xt[6,5]
   + 135.0389217966547 xt[4,5] + 1151.722449127824 xt[8,5]
   + 1975.629915830633 xt[10,2] + 1468.182440647303 xt[9,4]
   + 258.3759160602867 xt[0,1] + 1727.903340967003 xt[0,10]
   + 345.6799871629796 xt[2,7] + 665.2911580653911 xt[6,7]
   + 665.2911580653911 xt[7,6] + 594.251369371579 xt[4,7]
   + 1151.722449127824 xt[5,8] + 428.9557443664662 xt[8,7]
   + 1584.359657164373 xt[10,4] + 2103.583646571977 xt[9,6]
   + 371.0007429237864 xt[0,3] + 368.8231500326443 xt[2,0]
   + 1854.98970807119 xt[2,9] + 511.7023357627066 xt[6,0]
   + 2103.583646571977 xt[6,9] + 428.9557443664662 xt[7,8]
Subject To
 C1: xt[0,5] + xt[0,7] + xt[0,9] + xt[0,2] + xt[0,4] + xt[0,6] + xt[0,8]
   + xt[0,1] + xt[0,10] + xt[0,3] <= 8
 C2: xt[5,1] + xt[7,1] + xt[9,1] + xt[3,1] + xt[6,1] + xt[10,1] + xt[2,1]
   + xt[4,1] + xt[8,1] + xt[0,1] = 1
 C2: xt[6,2] + xt[4,2] + xt[8,2] + xt[0,2] + xt[5,2] + xt[7,2] + xt[9,2]
   + xt[1,2] + xt[3,2] + xt[10,2] = 1
 C2: xt[5,3] + xt[7,3] + xt[9,3] + xt[1,3] + xt[10,3] + xt[2,3] + xt[6,3]
   + xt[4,3] + xt[8,3] + xt[0,3] = 1
 C2: xt[2,4] + xt[6,4] + xt[8,4] + xt[5,4] + xt[7,4] + xt[0,4] + xt[1,4]
   + xt[3,4] + xt[9,4] + xt[10,4] = 1
 C2: xt[0,5] + xt[7,5] + xt[9,5] + xt[1,5] + xt[3,5] + xt[10,5] + xt[2,5]
   + xt[6,5] + xt[4,5] + xt[8,5] = 1
 C2: xt[10,6] + xt[3,6] + xt[2,6] + xt[4,6] + xt[8,6] + xt[5,6] + xt[0,6]
   + xt[1,6] + xt[7,6] + xt[9,6] = 1
 C2: xt[0,7] + xt[5,7] + xt[9,7] + xt[1,7] + xt[3,7] + xt[10,7] + xt[2,7]
   + xt[6,7] + xt[4,7] + xt[8,7] = 1
 C2: xt[9,8] + xt[1,8] + xt[3,8] + xt[10,8] + xt[2,8] + xt[6,8] + xt[4,8]
   + xt[0,8] + xt[5,8] + xt[7,8] = 1
 C2: xt[4,9] + xt[8,9] + xt[0,9] + xt[5,9] + xt[7,9] + xt[1,9] + xt[3,9]
   + xt[10,9] + xt[2,9] + xt[6,9] = 1
 C2: xt[5,10] + xt[7,10] + xt[9,10] + xt[1,10] + xt[3,10] + xt[2,10]
   + xt[6,10] + xt[4,10] + xt[8,10] + xt[0,10] = 1
 C3: xt[4,0] + xt[8,0] + xt[5,0] + xt[7,0] + xt[9,0] + xt[1,0] + xt[3,0]
   + xt[10,0] + xt[2,0] + xt[6,0] <= 8
 C4: xt[5,1] + xt[7,1] + xt[9,1] - xt[1,8] - xt[1,10] + xt[3,1] - xt[1,3]
   - xt[1,5] + xt[6,1] + xt[10,1] - xt[1,7] - xt[1,0] - xt[1,9] - xt[1,2]
   + xt[2,1] + xt[4,1] + xt[8,1] - xt[1,4] - xt[1,6] + xt[0,1] = 0
 C4: xt[6,2] + xt[4,2] + xt[8,2] - xt[2,4] + xt[0,2] + xt[5,2] - xt[2,6]
   + xt[7,2] + xt[9,2] - xt[2,8] + xt[1,2] - xt[2,1] - xt[2,10] + xt[3,2]
   - xt[2,3] - xt[2,5] + xt[10,2] - xt[2,7] - xt[2,0] - xt[2,9] = 0
 C4: - xt[3,6] + xt[5,3] + xt[7,3] - xt[3,8] + xt[9,3] - xt[3,1] - xt[3,10]
   + xt[1,3] - xt[3,5] - xt[3,7] + xt[10,3] - xt[3,0] - xt[3,9] - xt[3,2]
   + xt[2,3] + xt[6,3] - xt[3,4] + xt[4,3] + xt[8,3] + xt[0,3] = 0
 C4: - xt[4,0] - xt[4,9] - xt[4,2] + xt[2,4] + xt[6,4] + xt[8,4] + xt[5,4]
   - xt[4,6] + xt[7,4] - xt[4,8] + xt[0,4] - xt[4,1] - xt[4,10] + xt[1,4]
   + xt[3,4] - xt[4,3] - xt[4,5] + xt[9,4] - xt[4,7] + xt[10,4] = 0
 C4: - xt[5,1] - xt[5,10] + xt[0,5] - xt[5,3] + xt[7,5] - xt[5,7] + xt[9,5]
   - xt[5,0] - xt[5,9] + xt[1,5] + xt[3,5] - xt[5,2] - xt[5,4] - xt[5,6]
   + xt[10,5] + xt[2,5] + xt[6,5] + xt[4,5] + xt[8,5] - xt[5,8] = 0
 C4: xt[10,6] - xt[6,2] + xt[3,6] - xt[6,4] - xt[6,1] + xt[2,6] + xt[4,6]
   + xt[8,6] - xt[6,8] + xt[5,6] - xt[6,10] + xt[0,6] - xt[6,3] + xt[1,6]
   - xt[6,5] - xt[6,7] + xt[7,6] + xt[9,6] - xt[6,0] - xt[6,9] = 0
 C4: - xt[7,1] - xt[7,10] + xt[0,7] - xt[7,3] - xt[7,5] + xt[5,7] + xt[9,7]
   - xt[7,0] - xt[7,9] + xt[1,7] - xt[7,2] + xt[3,7] - xt[7,4] + xt[10,7]
   + xt[2,7] + xt[6,7] - xt[7,6] + xt[4,7] + xt[8,7] - xt[7,8] = 0
 C4: - xt[8,0] - xt[8,9] + xt[9,8] - xt[8,2] + xt[1,8] + xt[3,8] - xt[8,4]
   + xt[10,8] - xt[8,6] + xt[2,8] + xt[6,8] + xt[4,8] - xt[8,1] - xt[8,10]
   - xt[8,3] + xt[0,8] - xt[8,5] + xt[5,8] - xt[8,7] + xt[7,8] = 0
 C4: xt[4,9] + xt[8,9] - xt[9,8] - xt[9,1] - xt[9,10] - xt[9,3] + xt[0,9]
   - xt[9,5] + xt[5,9] - xt[9,7] + xt[7,9] - xt[9,0] - xt[9,2] + xt[1,9]
   + xt[3,9] + xt[10,9] - xt[9,4] - xt[9,6] + xt[2,9] + xt[6,9] = 0
 C4: xt[5,10] - xt[10,6] + xt[7,10] + xt[9,10] + xt[1,10] + xt[3,10]
   - xt[10,8] - xt[10,1] - xt[10,3] - xt[10,5] + xt[2,10] + xt[6,10]
   + xt[4,10] + xt[8,10] - xt[10,7] - xt[10,0] - xt[10,9] - xt[10,2]
   + xt[0,10] - xt[10,4] = 0
 C5: 64 xt[1,2] - y[1] + y[2] <= 40
 C5: 64 xt[1,3] - y[1] + y[3] <= 40
 C5: 64 xt[1,4] - y[1] + y[4] <= 40
 C5: 64 xt[1,5] - y[1] + y[5] <= 40
 C5: 64 xt[1,6] - y[1] + y[6] <= 40
 C5: 64 xt[1,7] - y[1] + y[7] <= 40
 C5: 64 xt[1,8] - y[1] + y[8] <= 40
 C5: 64 xt[1,9] - y[1] + y[9] <= 40
 C5: 64 xt[1,10] - y[1] + y[10] <= 40
 C5: 50 xt[2,1] + y[1] - y[2] <= 40
 C5: 50 xt[2,3] - y[2] + y[3] <= 40
 C5: 50 xt[2,4] - y[2] + y[4] <= 40
 C5: 50 xt[2,5] - y[2] + y[5] <= 40
 C5: 50 xt[2,6] - y[2] + y[6] <= 40
 C5: 50 xt[2,7] - y[2] + y[7] <= 40
 C5: 50 xt[2,8] - y[2] + y[8] <= 40
 C5: 50 xt[2,9] - y[2] + y[9] <= 40
 C5: 50 xt[2,10] - y[2] + y[10] <= 40
 C5: 75 xt[3,1] + y[1] - y[3] <= 40
 C5: 75 xt[3,2] + y[2] - y[3] <= 40
 C5: 75 xt[3,4] - y[3] + y[4] <= 40
 C5: 75 xt[3,5] - y[3] + y[5] <= 40
 C5: 75 xt[3,6] - y[3] + y[6] <= 40
 C5: 75 xt[3,7] - y[3] + y[7] <= 40
 C5: 75 xt[3,8] - y[3] + y[8] <= 40
 C5: 75 xt[3,9] - y[3] + y[9] <= 40
 C5: 75 xt[3,10] - y[3] + y[10] <= 40
 C5: 43 xt[4,1] + y[1] - y[4] <= 40
 C5: 43 xt[4,2] + y[2] - y[4] <= 40
 C5: 43 xt[4,3] + y[3] - y[4] <= 40
 C5: 43 xt[4,5] - y[4] + y[5] <= 40
 C5: 43 xt[4,6] - y[4] + y[6] <= 40
 C5: 43 xt[4,7] - y[4] + y[7] <= 40
 C5: 43 xt[4,8] - y[4] + y[8] <= 40
 C5: 43 xt[4,9] - y[4] + y[9] <= 40
 C5: 43 xt[4,10] - y[4] + y[10] <= 40
 C5: 48 xt[5,1] + y[1] - y[5] <= 40
 C5: 48 xt[5,2] + y[2] - y[5] <= 40
 C5: 48 xt[5,3] + y[3] - y[5] <= 40
 C5: 48 xt[5,4] + y[4] - y[5] <= 40
 C5: 48 xt[5,6] - y[5] + y[6] <= 40
 C5: 48 xt[5,7] - y[5] + y[7] <= 40
 C5: 48 xt[5,8] - y[5] + y[8] <= 40
 C5: 48 xt[5,9] - y[5] + y[9] <= 40
 C5: 48 xt[5,10] - y[5] + y[10] <= 40
 C5: 64 xt[6,1] + y[1] - y[6] <= 40
 C5: 64 xt[6,2] + y[2] - y[6] <= 40
 C5: 64 xt[6,3] + y[3] - y[6] <= 40
 C5: 64 xt[6,4] + y[4] - y[6] <= 40
 C5: 64 xt[6,5] + y[5] - y[6] <= 40
 C5: 64 xt[6,7] - y[6] + y[7] <= 40
 C5: 64 xt[6,8] - y[6] + y[8] <= 40
 C5: 64 xt[6,9] - y[6] + y[9] <= 40
 C5: 64 xt[6,10] - y[6] + y[10] <= 40
 C5: 56 xt[7,1] + y[1] - y[7] <= 40
 C5: 56 xt[7,2] + y[2] - y[7] <= 40
 C5: 56 xt[7,3] + y[3] - y[7] <= 40
 C5: 56 xt[7,4] + y[4] - y[7] <= 40
 C5: 56 xt[7,5] + y[5] - y[7] <= 40
 C5: 56 xt[7,6] + y[6] - y[7] <= 40
 C5: 56 xt[7,8] - y[7] + y[8] <= 40
 C5: 56 xt[7,9] - y[7] + y[9] <= 40
 C5: 56 xt[7,10] - y[7] + y[10] <= 40
 C5: 48 xt[8,1] + y[1] - y[8] <= 40
 C5: 48 xt[8,2] + y[2] - y[8] <= 40
 C5: 48 xt[8,3] + y[3] - y[8] <= 40
 C5: 48 xt[8,4] + y[4] - y[8] <= 40
 C5: 48 xt[8,5] + y[5] - y[8] <= 40
 C5: 48 xt[8,6] + y[6] - y[8] <= 40
 C5: 48 xt[8,7] + y[7] - y[8] <= 40
 C5: 48 xt[8,9] - y[8] + y[9] <= 40
 C5: 48 xt[8,10] - y[8] + y[10] <= 40
 C5: 41 xt[9,1] + y[1] - y[9] <= 40
 C5: 41 xt[9,2] + y[2] - y[9] <= 40
 C5: 41 xt[9,3] + y[3] - y[9] <= 40
 C5: 41 xt[9,4] + y[4] - y[9] <= 40
 C5: 41 xt[9,5] + y[5] - y[9] <= 40
 C5: 41 xt[9,6] + y[6] - y[9] <= 40
 C5: 41 xt[9,7] + y[7] - y[9] <= 40
 C5: 41 xt[9,8] + y[8] - y[9] <= 40
 C5: 41 xt[9,10] - y[9] + y[10] <= 40
 C5: 42 xt[10,1] + y[1] - y[10] <= 40
 C5: 42 xt[10,2] + y[2] - y[10] <= 40
 C5: 42 xt[10,3] + y[3] - y[10] <= 40
 C5: 42 xt[10,4] + y[4] - y[10] <= 40
 C5: 42 xt[10,5] + y[5] - y[10] <= 40
 C5: 42 xt[10,6] + y[6] - y[10] <= 40
 C5: 42 xt[10,7] + y[7] - y[10] <= 40
 C5: 42 xt[10,8] + y[8] - y[10] <= 40
 C5: 42 xt[10,9] + y[9] - y[10] <= 40
 C6: y[1] >= 24
 C7: y[1] <= 40
 C6: y[2] >= 10
 C7: y[2] <= 40
 C6: y[3] >= 35
 C7: y[3] <= 40
 C6: y[4] >= 3
 C7: y[4] <= 40
 C6: y[5] >= 8
 C7: y[5] <= 40
 C6: y[6] >= 24
 C7: y[6] <= 40
 C6: y[7] >= 16
 C7: y[7] <= 40
 C6: y[8] >= 8
 C7: y[8] <= 40
 C6: y[9] >= 1
 C7: y[9] <= 40
 C6: y[10] >= 2
 C7: y[10] <= 40
Bounds
 y[1] <= 40
 y[2] <= 40
 y[3] <= 40
 y[4] <= 40
 y[5] <= 40
 y[6] <= 40
 y[7] <= 40
 y[8] <= 40
 y[9] <= 40
 y[10] <= 40
Binaries
 xt[4,0] xt[4,9] xt[5,1] xt[8,0] xt[5,10] xt[8,9] xt[10,6] xt[9,8] xt[0,5]
 xt[6,2] xt[7,1] xt[7,10] xt[4,2] xt[3,6] xt[5,3] xt[8,2] xt[9,1] xt[9,10]
 xt[0,7] xt[2,4] xt[1,8] xt[6,4] xt[7,3] xt[3,8] xt[8,4] xt[9,3] xt[0,9]
 xt[1,10] xt[7,5] xt[3,1] xt[3,10] xt[5,7] xt[9,5] xt[0,2] xt[1,3] xt[5,0]
 xt[5,9] xt[9,7] xt[10,8] xt[1,5] xt[6,1] xt[7,0] xt[7,9] xt[3,5] xt[5,2]
 xt[9,0] xt[10,1] xt[1,7] xt[2,6] xt[7,2] xt[3,7] xt[5,4] xt[4,6] xt[9,2]
 xt[8,6] xt[10,3] xt[1,0] xt[1,9] xt[2,8] xt[7,4] xt[6,8] xt[3,0] xt[3,9]
 xt[5,6] xt[4,8] xt[10,5] xt[1,2] xt[0,4] xt[2,1] xt[2,10] xt[6,10] xt[3,2]
 xt[4,1] xt[4,10] xt[8,1] xt[8,10] xt[10,7] xt[1,4] xt[0,6] xt[2,3] xt[6,3]
 xt[3,4] xt[4,3] xt[8,3] xt[10,0] xt[10,9] xt[1,6] xt[0,8] xt[2,5] xt[6,5]
 xt[4,5] xt[8,5] xt[10,2] xt[9,4] xt[0,1] xt[0,10] xt[2,7] xt[6,7] xt[7,6]
 xt[4,7] xt[5,8] xt[8,7] xt[10,4] xt[9,6] xt[0,3] xt[2,0] xt[2,9] xt[6,0]
 xt[6,9] xt[7,8]
End
